c preprocessed version of 1ldd_graph, 74 vertices, 835 edges
p td 74 835
72 73
71 73
71 72
70 73
70 72
70 71
69 71
69 70
68 70
68 69
67 71
67 69
67 68
66 71
66 69
66 68
66 67
65 73
65 71
65 70
65 69
65 68
65 67
65 66
64 71
64 70
64 69
64 68
64 67
64 66
64 65
63 73
63 72
63 71
63 70
63 69
63 66
63 65
63 64
62 73
62 72
62 71
62 70
62 69
62 65
62 64
62 63
61 73
61 72
61 70
61 63
61 62
60 73
60 72
60 63
60 62
60 61
59 72
59 70
59 62
59 61
59 60
58 70
58 64
58 62
58 61
58 60
58 59
57 73
57 72
57 71
57 70
57 69
57 68
57 66
57 65
57 64
57 63
57 62
57 61
57 60
57 59
57 58
56 73
56 72
56 71
56 70
56 64
56 63
56 62
56 61
56 60
56 59
56 58
56 57
55 70
55 62
55 61
55 59
55 58
55 57
55 56
54 70
54 68
54 64
54 62
54 59
54 58
54 57
54 56
54 55
53 72
53 71
53 70
53 69
53 68
53 65
53 64
53 63
53 62
53 61
53 58
53 57
53 56
53 55
53 54
52 72
52 70
52 62
52 61
52 59
52 57
52 56
52 55
52 54
52 53
51 58
51 56
51 55
51 54
51 53
51 52
50 70
50 68
50 64
50 58
50 57
50 55
50 54
50 53
50 52
50 51
49 72
49 70
49 62
49 57
49 56
49 54
49 53
49 52
49 51
49 50
48 55
48 53
48 52
48 51
48 50
48 49
47 54
47 52
47 51
47 50
47 49
47 48
46 70
46 68
46 54
46 53
46 50
46 49
46 48
46 47
45 52
45 51
45 50
45 49
45 48
45 47
45 46
44 56
44 53
44 52
44 51
44 49
44 48
44 47
44 46
44 45
43 49
43 48
43 45
43 44
42 45
42 44
42 43
41 56
41 53
41 52
41 49
41 48
41 46
41 44
41 43
41 42
40 44
40 43
40 42
40 41
39 44
39 42
39 41
39 40
38 43
38 42
38 41
38 40
38 39
37 43
37 42
37 41
37 40
37 39
37 38
36 42
36 41
36 40
36 39
36 38
36 37
35 56
35 53
35 52
35 49
35 48
35 44
35 43
35 42
35 41
35 40
35 39
35 38
35 37
35 36
34 41
34 39
34 36
34 35
33 42
33 37
33 35
33 34
32 49
32 46
32 45
32 44
32 43
32 42
32 41
32 37
32 35
32 34
32 33
31 72
31 70
31 62
31 56
31 53
31 52
31 49
31 48
31 46
31 45
31 44
31 43
31 42
31 41
31 40
31 39
31 36
31 35
31 34
31 33
31 32
30 72
30 70
30 49
30 41
30 35
30 34
30 33
30 32
30 31
29 49
29 46
29 42
29 41
29 34
29 33
29 32
29 31
29 30
28 70
28 68
28 53
28 52
28 50
28 49
28 48
28 47
28 46
28 45
28 44
28 42
28 41
28 35
28 32
28 31
28 30
28 29
27 72
27 71
27 70
27 69
27 68
27 64
27 62
27 61
27 57
27 56
27 53
27 52
27 50
27 49
27 46
27 44
27 41
27 35
27 34
27 32
27 31
27 30
27 29
27 28
26 70
26 69
26 68
26 53
26 46
26 34
26 33
26 31
26 30
26 29
26 28
26 27
25 69
25 68
25 53
25 50
25 49
25 47
25 46
25 45
25 32
25 30
25 29
25 28
25 27
25 26
24 70
24 69
24 68
24 67
24 64
24 62
24 57
24 56
24 54
24 53
24 52
24 51
24 50
24 49
24 47
24 46
24 45
24 44
24 41
24 31
24 28
24 27
24 26
24 25
23 71
23 70
23 69
23 68
23 67
23 66
23 65
23 53
23 50
23 49
23 46
23 30
23 29
23 28
23 27
23 26
23 25
23 24
22 72
22 71
22 70
22 69
22 68
22 65
22 62
22 61
22 57
22 56
22 53
22 52
22 49
22 35
22 34
22 31
22 30
22 29
22 28
22 27
22 26
22 25
22 24
22 23
21 73
21 72
21 71
21 70
21 69
21 67
21 66
21 65
21 64
21 63
21 62
21 57
21 53
21 27
21 26
21 23
21 22
20 72
20 71
20 69
20 65
20 63
20 27
20 26
20 22
20 21
19 72
19 69
19 34
19 33
19 30
19 29
19 27
19 26
19 23
19 22
19 21
19 20
18 34
18 33
18 30
18 27
18 22
18 20
18 19
17 73
17 72
17 71
17 70
17 62
17 61
17 56
17 22
17 20
17 19
17 18
16 73
16 72
16 71
16 70
16 69
16 63
16 62
16 61
16 57
16 56
16 53
16 52
16 49
16 34
16 31
16 30
16 27
16 26
16 24
16 23
16 22
16 21
16 20
16 19
16 18
16 17
15 72
15 70
15 62
15 56
15 53
15 52
15 49
15 44
15 41
15 35
15 34
15 33
15 31
15 30
15 29
15 28
15 27
15 26
15 24
15 23
15 22
15 21
15 20
15 19
15 18
15 17
15 16
14 72
14 34
14 31
14 30
14 27
14 22
14 19
14 18
14 17
14 16
14 15
13 73
13 72
13 71
13 70
13 62
13 61
13 59
13 56
13 53
13 52
13 27
13 22
13 18
13 17
13 16
13 15
13 14
12 72
12 71
12 70
12 62
12 61
12 59
12 57
12 56
12 53
12 52
12 50
12 49
12 48
12 46
12 44
12 41
12 35
12 34
12 32
12 31
12 30
12 28
12 27
12 26
12 24
12 22
12 17
12 16
12 15
12 14
12 13
11 56
11 53
11 52
11 49
11 44
11 41
11 39
11 36
11 35
11 34
11 33
11 32
11 31
11 30
11 28
11 27
11 22
11 19
11 18
11 16
11 15
11 14
11 13
11 12
10 72
10 61
10 56
10 41
10 39
10 36
10 35
10 34
10 31
10 18
10 17
10 15
10 14
10 13
10 12
10 11
9 72
9 70
9 62
9 61
9 59
9 56
9 55
9 53
9 52
9 49
9 41
9 35
9 31
9 27
9 17
9 16
9 14
9 13
9 12
9 11
9 10
8 70
8 62
8 56
8 53
8 52
8 49
8 48
8 44
8 43
8 42
8 41
8 40
8 39
8 38
8 37
8 36
8 35
8 34
8 32
8 31
8 30
8 28
8 27
8 24
8 22
8 16
8 15
8 14
8 13
8 12
8 11
8 10
8 9
7 44
7 41
7 40
7 39
7 38
7 36
7 35
7 34
7 31
7 11
7 10
7 9
7 8
6 61
6 59
6 56
6 55
6 52
6 48
6 39
6 13
6 12
6 10
6 9
6 8
6 7
5 70
5 62
5 61
5 59
5 56
5 55
5 53
5 52
5 51
5 50
5 49
5 48
5 47
5 46
5 45
5 44
5 43
5 41
5 40
5 35
5 31
5 28
5 27
5 24
5 16
5 15
5 12
5 11
5 9
5 8
5 7
5 6
4 52
4 49
4 48
4 44
4 43
4 42
4 41
4 40
4 39
4 35
4 31
4 28
4 12
4 11
4 8
4 7
4 6
4 5
3 52
3 44
3 43
3 41
3 40
3 39
3 38
3 35
3 8
3 7
3 6
3 5
3 4
2 61
2 59
2 56
2 55
2 52
2 51
2 48
2 44
2 12
2 9
2 7
2 6
2 5
2 4
2 3
1 52
1 48
1 44
1 43
1 40
1 7
1 6
1 5
1 4
1 3
1 2
0 52
0 49
0 48
0 47
0 45
0 44
0 43
0 42
0 40
0 5
0 4
0 2
0 1
